NAME : X-n376-k94
COMMENT : "Generated by Uchoa, Pecin, Pessoa, Poggi, Subramanian, and Vidal (2013)"
TYPE : CVRP
DIMENSION : 376
EDGE_WEIGHT_TYPE : EUC_2D
CAPACITY : 4
NODE_COORD_SECTION
1 0 0
2 989 944
3 5 730
4 769 200
5 698 515
6 72 561
7 52 397
8 839 271
9 140 724
10 339 580
11 30 850
12 820 815
13 555 844
14 388 709
15 323 438
16 159 983
17 989 233
18 644 167
19 766 151
20 387 690
21 193 140
22 863 192
23 149 123
24 609 119
25 121 204
26 625 537
27 716 123
28 8 219
29 429 956
30 844 970
31 661 66
32 347 202
33 979 314
34 255 772
35 634 504
36 466 48
37 330 90
38 929 245
39 236 130
40 785 0
41 251 486
42 758 203
43 524 280
44 798 71
45 212 595
46 967 478
47 504 429
48 581 534
49 883 899
50 605 414
51 640 692
52 287 432
53 641 771
54 53 374
55 344 325
56 647 72
57 63 976
58 519 235
59 485 226
60 469 527
61 433 168
62 538 891
63 884 433
64 142 134
65 234 394
66 473 750
67 815 622
68 130 999
69 655 588
70 16 235
71 503 614
72 477 489
73 87 78
74 689 289
75 631 868
76 304 743
77 624 81
78 338 865
79 831 984
80 312 157
81 563 205
82 641 435
83 189 201
84 277 903
85 906 949
86 601 486
87 746 904
88 557 409
89 854 201
90 50 20
91 994 111
92 584 875
93 316 741
94 150 56
95 377 988
96 371 762
97 401 741
98 890 126
99 797 335
100 9 301
101 923 259
102 586 782
103 103 99
104 166 987
105 896 750
106 383 86
107 603 863
108 590 78
109 40 554
110 755 120
111 554 351
112 603 102
113 279 404
114 1 481
115 667 931
116 609 350
117 237 925
118 755 779
119 607 107
120 589 379
121 744 130
122 469 142
123 491 28
124 602 512
125 329 925
126 933 714
127 391 982
128 285 336
129 730 604
130 758 153
131 831 894
132 355 206
133 382 353
134 887 133
135 286 835
136 103 743
137 929 750
138 89 845
139 689 515
140 903 330
141 713 261
142 465 494
143 922 783
144 703 619
145 282 745
146 939 801
147 320 130
148 531 25
149 887 949
150 765 502
151 174 187
152 993 233
153 982 13
154 25 851
155 228 228
156 774 690
157 722 969
158 133 115
159 175 663
160 134 106
161 469 233
162 325 78
163 166 547
164 416 965
165 284 119
166 169 541
167 302 72
168 537 7
169 434 329
170 59 816
171 139 74
172 495 746
173 890 453
174 719 235
175 184 528
176 863 957
177 821 476
178 700 645
179 400 49
180 293 179
181 104 271
182 882 906
183 701 394
184 18 221
185 819 101
186 971 397
187 454 960
188 348 657
189 745 122
190 3 510
191 981 283
192 167 323
193 869 880
194 844 154
195 53 544
196 443 825
197 879 809
198 683 254
199 402 59
200 719 31
201 664 737
202 541 249
203 204 791
204 615 578
205 821 381
206 767 595
207 594 837
208 331 365
209 145 850
210 537 263
211 157 938
212 147 59
213 138 140
214 354 240
215 435 976
216 917 593
217 504 643
218 552 29
219 420 473
220 576 665
221 648 637
222 792 147
223 55 92
224 635 236
225 180 793
226 561 629
227 743 136
228 686 38
229 415 672
230 678 523
231 834 48
232 897 63
233 868 224
234 786 394
235 132 915
236 513 74
237 757 295
238 859 823
239 398 959
240 360 94
241 506 114
242 699 907
243 842 46
244 341 918
245 240 808
246 434 756
247 628 184
248 938 599
249 287 889
250 22 999
251 374 19
252 707 963
253 681 762
254 750 278
255 652 340
256 788 95
257 653 222
258 730 753
259 484 573
260 395 854
261 144 957
262 404 597
263 849 288
264 321 355
265 294 41
266 43 501
267 175 695
268 439 486
269 949 443
270 245 169
271 848 143
272 198 396
273 153 521
274 436 824
275 703 624
276 126 2
277 659 523
278 370 702
279 528 268
280 330 488
281 420 88
282 630 555
283 568 848
284 992 800
285 92 747
286 126 152
287 18 275
288 875 151
289 537 418
290 598 777
291 527 104
292 819 522
293 316 915
294 112 727
295 697 29
296 243 155
297 195 437
298 563 820
299 583 383
300 645 62
301 645 77
302 174 884
303 193 643
304 96 519
305 336 319
306 998 266
307 990 922
308 753 566
309 646 537
310 412 328
311 386 478
312 344 512
313 151 492
314 625 949
315 251 208
316 680 428
317 135 843
318 171 19
319 405 150
320 146 654
321 82 631
322 417 950
323 121 982
324 209 292
325 180 796
326 51 162
327 628 521
328 913 714
329 820 662
330 596 600
331 605 229
332 378 53
333 95 447
334 899 216
335 685 705
336 304 713
337 305 760
338 636 482
339 954 189
340 470 857
341 450 97
342 811 886
343 453 64
344 230 919
345 732 350
346 258 429
347 674 351
348 20 95
349 57 298
350 136 129
351 62 213
352 852 852
353 538 110
354 435 522
355 518 452
356 816 415
357 987 849
358 472 154
359 893 13
360 579 281
361 418 966
362 391 92
363 490 482
364 890 711
365 552 802
366 667 416
367 571 581
368 71 227
369 311 90
370 598 723
371 845 677
372 528 124
373 321 456
374 817 624
375 978 276
376 239 960
PICKUP_AND_DELIVERY_SECTION
1 0 0 1000000000 0 0 0
2 0 0 1000000000 0 0.0455 0.9545
3 0 0 1000000000 0 0.9932 0.00685
4 0 0 1000000000 0 0.7399 0.2601
5 0 0 1000000000 0 0.2622 0.7378
6 0 0 1000000000 0 0.8717 0.1283
7 0 0 1000000000 0 0.869 0.131
8 0 0 1000000000 0 0.677 0.323
9 0 0 1000000000 0 0.8066 0.1934
10 0 0 1000000000 0 0.4155 0.5845
11 0 0 1000000000 0 0.9647 0.03529
12 0 0 1000000000 0 0.0061 0.9939
13 0 0 1000000000 0 0.3424 0.6576
14 0 0 1000000000 0 0.4528 0.5472
15 0 0 1000000000 0 0.2626 0.7374
16 0 0 1000000000 0 0.8383 0.1617
17 0 0 1000000000 0 0.7644 0.2356
18 0 0 1000000000 0 0.7407 0.2593
19 0 0 1000000000 0 0.8029 0.1971
20 0 0 1000000000 0 0.4391 0.5609
21 0 0 1000000000 0 0.2746 0.7254
22 0 0 1000000000 0 0.7775 0.2225
23 0 0 1000000000 0 0.1745 0.8255
24 0 0 1000000000 0 0.8046 0.1954
25 0 0 1000000000 0 0.4069 0.5931
26 0 0 1000000000 0 0.1408 0.8592
27 0 0 1000000000 0 0.8282 0.1718
28 0 0 1000000000 0 0.9635 0.03653
29 0 0 1000000000 0 0.5513 0.4487
30 0 0 1000000000 0 0.1299 0.8701
31 0 0 1000000000 0 0.9002 0.09985
32 0 0 1000000000 0 0.4179 0.5821
33 0 0 1000000000 0 0.6793 0.3207
34 0 0 1000000000 0 0.6697 0.3303
35 0 0 1000000000 0 0.205 0.795
36 0 0 1000000000 0 0.897 0.103
37 0 0 1000000000 0 0.7273 0.2727
38 0 0 1000000000 0 0.7363 0.2637
39 0 0 1000000000 0 0.4492 0.5508
40 0 0 1000000000 0 1 0
41 0 0 1000000000 0 0.4835 0.5165
42 0 0 1000000000 0 0.7322 0.2678
43 0 0 1000000000 0 0.4656 0.5344
44 0 0 1000000000 0 0.911 0.08897
45 0 0 1000000000 0 0.6437 0.3563
46 0 0 1000000000 0 0.5057 0.4943
47 0 0 1000000000 0 0.1488 0.8512
48 0 0 1000000000 0 0.0809 0.9191
49 0 0 1000000000 0 0.0178 0.9822
50 0 0 1000000000 0 0.3157 0.6843
51 0 0 1000000000 0 0.07514 0.9249
52 0 0 1000000000 0 0.3356 0.6644
53 0 0 1000000000 0 0.1686 0.8314
54 0 0 1000000000 0 0.8583 0.1417
55 0 0 1000000000 0 0.05523 0.9448
56 0 0 1000000000 0 0.8887 0.1113
57 0 0 1000000000 0 0.9355 0.06455
58 0 0 1000000000 0 0.5472 0.4528
59 0 0 1000000000 0 0.534 0.466
60 0 0 1000000000 0 0.1101 0.8899
61 0 0 1000000000 0 0.612 0.388
62 0 0 1000000000 0 0.3962 0.6038
63 0 0 1000000000 0 0.5102 0.4898
64 0 0 1000000000 0 0.05634 0.9437
65 0 0 1000000000 0 0.4061 0.5939
66 0 0 1000000000 0 0.3693 0.6307
67 0 0 1000000000 0 0.2368 0.7632
68 0 0 1000000000 0 0.8699 0.1301
69 0 0 1000000000 0 0.1023 0.8977
70 0 0 1000000000 0 0.9319 0.06809
71 0 0 1000000000 0 0.1808 0.8192
72 0 0 1000000000 0 0.02454 0.9755
73 0 0 1000000000 0 0.1034 0.8966
74 0 0 1000000000 0 0.5806 0.4194
75 0 0 1000000000 0 0.273 0.727
76 0 0 1000000000 0 0.5908 0.4092
77 0 0 1000000000 0 0.8702 0.1298
78 0 0 1000000000 0 0.6092 0.3908
79 0 0 1000000000 0 0.1555 0.8445
80 0 0 1000000000 0 0.4968 0.5032
81 0 0 1000000000 0 0.6359 0.3641
82 0 0 1000000000 0 0.3214 0.6786
83 0 0 1000000000 0 0.0597 0.9403
84 0 0 1000000000 0 0.6932 0.3068
85 0 0 1000000000 0 0.04531 0.9547
86 0 0 1000000000 0 0.1913 0.8087
87 0 0 1000000000 0 0.1748 0.8252
88 0 0 1000000000 0 0.2657 0.7343
89 0 0 1000000000 0 0.7646 0.2354
90 0 0 1000000000 0 0.6 0.4
91 0 0 1000000000 0 0.8883 0.1117
92 0 0 1000000000 0 0.3326 0.6674
93 0 0 1000000000 0 0.5735 0.4265
94 0 0 1000000000 0 0.6267 0.3733
95 0 0 1000000000 0 0.6184 0.3816
96 0 0 1000000000 0 0.5131 0.4869
97 0 0 1000000000 0 0.4588 0.5412
98 0 0 1000000000 0 0.8584 0.1416
99 0 0 1000000000 0 0.5797 0.4203
100 0 0 1000000000 0 0.9701 0.0299
101 0 0 1000000000 0 0.7194 0.2806
102 0 0 1000000000 0 0.2506 0.7494
103 0 0 1000000000 0 0.03883 0.9612
104 0 0 1000000000 0 0.8318 0.1682
105 0 0 1000000000 0 0.1629 0.8371
106 0 0 1000000000 0 0.7755 0.2245
107 0 0 1000000000 0 0.3013 0.6987
108 0 0 1000000000 0 0.8678 0.1322
109 0 0 1000000000 0 0.9278 0.0722
110 0 0 1000000000 0 0.8411 0.1589
111 0 0 1000000000 0 0.3664 0.6336
112 0 0 1000000000 0 0.8308 0.1692
113 0 0 1000000000 0 0.3094 0.6906
114 0 0 1000000000 0 0.9979 0.00208
115 0 0 1000000000 0 0.2836 0.7164
116 0 0 1000000000 0 0.4253 0.5747
117 0 0 1000000000 0 0.7438 0.2562
118 0 0 1000000000 0 0.03081 0.9692
119 0 0 1000000000 0 0.8237 0.1763
120 0 0 1000000000 0 0.3565 0.6435
121 0 0 1000000000 0 0.8253 0.1747
122 0 0 1000000000 0 0.6972 0.3028
123 0 0 1000000000 0 0.943 0.05703
124 0 0 1000000000 0 0.1495 0.8505
125 0 0 1000000000 0 0.6443 0.3557
126 0 0 1000000000 0 0.2347 0.7653
127 0 0 1000000000 0 0.6018 0.3982
128 0 0 1000000000 0 0.1518 0.8482
129 0 0 1000000000 0 0.1726 0.8274
130 0 0 1000000000 0 0.7982 0.2018
131 0 0 1000000000 0 0.07047 0.9295
132 0 0 1000000000 0 0.4197 0.5803
133 0 0 1000000000 0 0.07592 0.9241
134 0 0 1000000000 0 0.8501 0.1499
135 0 0 1000000000 0 0.6575 0.3425
136 0 0 1000000000 0 0.8614 0.1386
137 0 0 1000000000 0 0.1927 0.8073
138 0 0 1000000000 0 0.8947 0.1053
139 0 0 1000000000 0 0.2525 0.7475
140 0 0 1000000000 0 0.6346 0.3654
141 0 0 1000000000 0 0.6339 0.3661
142 0 0 1000000000 0 0.0587 0.9413
143 0 0 1000000000 0 0.1508 0.8492
144 0 0 1000000000 0 0.1195 0.8805
145 0 0 1000000000 0 0.6215 0.3785
146 0 0 1000000000 0 0.147 0.853
147 0 0 1000000000 0 0.5938 0.4062
148 0 0 1000000000 0 0.9529 0.04708
149 0 0 1000000000 0 0.06533 0.9347
150 0 0 1000000000 0 0.3438 0.6562
151 0 0 1000000000 0 0.06952 0.9305
152 0 0 1000000000 0 0.7654 0.2346
153 0 0 1000000000 0 0.9868 0.01324
154 0 0 1000000000 0 0.9706 0.02938
155 0 0 1000000000 0 0 1
156 0 0 1000000000 0 0.1085 0.8915
157 0 0 1000000000 0 0.2549 0.7451
158 0 0 1000000000 0 0.1353 0.8647
159 0 0 1000000000 0 0.736 0.264
160 0 0 1000000000 0 0.209 0.791
161 0 0 1000000000 0 0.5032 0.4968
162 0 0 1000000000 0 0.76 0.24
163 0 0 1000000000 0 0.6965 0.3035
164 0 0 1000000000 0 0.5689 0.4311
165 0 0 1000000000 0 0.581 0.419
166 0 0 1000000000 0 0.6876 0.3124
167 0 0 1000000000 0 0.7616 0.2384
168 0 0 1000000000 0 0.987 0.01304
169 0 0 1000000000 0 0.2419 0.7581
170 0 0 1000000000 0 0.9277 0.0723
171 0 0 1000000000 0 0.4676 0.5324
172 0 0 1000000000 0 0.3365 0.6635
173 0 0 1000000000 0 0.491 0.509
174 0 0 1000000000 0 0.6732 0.3268
175 0 0 1000000000 0 0.6515 0.3485
176 0 0 1000000000 0 0.09822 0.9018
177 0 0 1000000000 0 0.4202 0.5798
178 0 0 1000000000 0 0.07857 0.9214
179 0 0 1000000000 0 0.8775 0.1225
180 0 0 1000000000 0 0.3891 0.6109
181 0 0 1000000000 0 0.6162 0.3838
182 0 0 1000000000 0 0.02649 0.9735
183 0 0 1000000000 0 0.4379 0.5621
184 0 0 1000000000 0 0.9186 0.08145
185 0 0 1000000000 0 0.8767 0.1233
186 0 0 1000000000 0 0.5911 0.4089
187 0 0 1000000000 0 0.5271 0.4729
188 0 0 1000000000 0 0.4703 0.5297
189 0 0 1000000000 0 0.8362 0.1638
190 0 0 1000000000 0 0.9941 0.00588
191 0 0 1000000000 0 0.7115 0.2885
192 0 0 1000000000 0 0.483 0.517
193 0 0 1000000000 0 0.0125 0.9875
194 0 0 1000000000 0 0.8175 0.1825
195 0 0 1000000000 0 0.9026 0.09743
196 0 0 1000000000 0 0.463 0.537
197 0 0 1000000000 0 0.07964 0.9204
198 0 0 1000000000 0 0.6281 0.3719
199 0 0 1000000000 0 0.8532 0.1468
200 0 0 1000000000 0 0.9569 0.04312
201 0 0 1000000000 0 0.09905 0.9009
202 0 0 1000000000 0 0.5397 0.4603
203 0 0 1000000000 0 0.7421 0.2579
204 0 0 1000000000 0 0.06016 0.9398
205 0 0 1000000000 0 0.5359 0.4641
206 0 0 1000000000 0 0.2243 0.7757
207 0 0 1000000000 0 0.2903 0.7097
208 0 0 1000000000 0 0.09315 0.9068
209 0 0 1000000000 0 0.8294 0.1706
210 0 0 1000000000 0 0.5102 0.4898
211 0 0 1000000000 0 0.8326 0.1674
212 0 0 1000000000 0 0.5986 0.4014
213 0 0 1000000000 0 0.01429 0.9857
214 0 0 1000000000 0 0.322 0.678
215 0 0 1000000000 0 0.5543 0.4457
216 0 0 1000000000 0 0.3533 0.6467
217 0 0 1000000000 0 0.2162 0.7838
218 0 0 1000000000 0 0.9475 0.05254
219 0 0 1000000000 0 0.1121 0.8879
220 0 0 1000000000 0 0.1338 0.8662
221 0 0 1000000000 0 0.01698 0.983
222 0 0 1000000000 0 0.8144 0.1856
223 0 0 1000000000 0 0.4022 0.5978
224 0 0 1000000000 0 0.6283 0.3717
225 0 0 1000000000 0 0.773 0.227
226 0 0 1000000000 0 0.1081 0.8919
227 0 0 1000000000 0 0.817 0.183
228 0 0 1000000000 0 0.9446 0.05539
229 0 0 1000000000 0 0.3824 0.6176
230 0 0 1000000000 0 0.2286 0.7714
231 0 0 1000000000 0 0.9424 0.05755
232 0 0 1000000000 0 0.9298 0.07023
233 0 0 1000000000 0 0.7419 0.2581
234 0 0 1000000000 0 0.4987 0.5013
235 0 0 1000000000 0 0.8557 0.1443
236 0 0 1000000000 0 0.8558 0.1442
237 0 0 1000000000 0 0.6103 0.3897
238 0 0 1000000000 0 0.04191 0.9581
239 0 0 1000000000 0 0.585 0.415
240 0 0 1000000000 0 0.7389 0.2611
241 0 0 1000000000 0 0.7747 0.2253
242 0 0 1000000000 0 0.2293 0.7707
243 0 0 1000000000 0 0.9454 0.05463
244 0 0 1000000000 0 0.6285 0.3715
245 0 0 1000000000 0 0.703 0.297
246 0 0 1000000000 0 0.4259 0.5741
247 0 0 1000000000 0 0.707 0.293
248 0 0 1000000000 0 0.3614 0.6386
249 0 0 1000000000 0 0.6772 0.3228
250 0 0 1000000000 0 0.978 0.02202
251 0 0 1000000000 0 0.9492 0.0508
252 0 0 1000000000 0 0.2658 0.7342
253 0 0 1000000000 0 0.1063 0.8937
254 0 0 1000000000 0 0.6293 0.3707
255 0 0 1000000000 0 0.4785 0.5215
256 0 0 1000000000 0 0.8794 0.1206
257 0 0 1000000000 0 0.66 0.34
258 0 0 1000000000 0 0.03054 0.9695
259 0 0 1000000000 0 0.1553 0.8447
260 0 0 1000000000 0 0.5375 0.4625
261 0 0 1000000000 0 0.8495 0.1505
262 0 0 1000000000 0 0.3233 0.6767
263 0 0 1000000000 0 0.6608 0.3392
264 0 0 1000000000 0 0.09577 0.9042
265 0 0 1000000000 0 0.8605 0.1395
266 0 0 1000000000 0 0.9142 0.08583
267 0 0 1000000000 0 0.7482 0.2518
268 0 0 1000000000 0 0.09671 0.9033
269 0 0 1000000000 0 0.5332 0.4668
270 0 0 1000000000 0 0.3102 0.6898
271 0 0 1000000000 0 0.8314 0.1686
272 0 0 1000000000 0 0.5 0.5
273 0 0 1000000000 0 0.7063 0.2937
274 0 0 1000000000 0 0.4709 0.5291
275 0 0 1000000000 0 0.1124 0.8876
276 0 0 1000000000 0 0.9841 0.01587
277 0 0 1000000000 0 0.2064 0.7936
278 0 0 1000000000 0 0.4729 0.5271
279 0 0 1000000000 0 0.4924 0.5076
280 0 0 1000000000 0 0.3238 0.6762
281 0 0 1000000000 0 0.7905 0.2095
282 0 0 1000000000 0 0.119 0.881
283 0 0 1000000000 0 0.3302 0.6698
284 0 0 1000000000 0 0.1935 0.8065
285 0 0 1000000000 0 0.8768 0.1232
286 0 0 1000000000 0 0.1711 0.8289
287 0 0 1000000000 0 0.9345 0.06545
288 0 0 1000000000 0 0.8274 0.1726
289 0 0 1000000000 0 0.2216 0.7784
290 0 0 1000000000 0 0.2304 0.7696
291 0 0 1000000000 0 0.8027 0.1973
292 0 0 1000000000 0 0.3626 0.6374
293 0 0 1000000000 0 0.6546 0.3454
294 0 0 1000000000 0 0.8459 0.1541
295 0 0 1000000000 0 0.9584 0.04161
296 0 0 1000000000 0 0.3621 0.6379
297 0 0 1000000000 0 0.5538 0.4462
298 0 0 1000000000 0 0.3134 0.6866
299 0 0 1000000000 0 0.3431 0.6569
300 0 0 1000000000 0 0.9039 0.09612
301 0 0 1000000000 0 0.8806 0.1194
302 0 0 1000000000 0 0.8032 0.1968
303 0 0 1000000000 0 0.6998 0.3002
304 0 0 1000000000 0 0.815 0.185
305 0 0 1000000000 0 0.0506 0.9494
306 0 0 1000000000 0 0.7335 0.2665
307 0 0 1000000000 0 0.06869 0.9313
308 0 0 1000000000 0 0.2483 0.7517
309 0 0 1000000000 0 0.1687 0.8313
310 0 0 1000000000 0 0.2039 0.7961
311 0 0 1000000000 0 0.1925 0.8075
312 0 0 1000000000 0 0.3281 0.6719
313 0 0 1000000000 0 0.6931 0.3069
314 0 0 1000000000 0 0.3414 0.6586
315 0 0 1000000000 0 0.1713 0.8287
316 0 0 1000000000 0 0.3706 0.6294
317 0 0 1000000000 0 0.8399 0.1601
318 0 0 1000000000 0 0.8889 0.1111
319 0 0 1000000000 0 0.6296 0.3704
320 0 0 1000000000 0 0.7768 0.2232
321 0 0 1000000000 0 0.87 0.13
322 0 0 1000000000 0 0.5611 0.4389
323 0 0 1000000000 0 0.8768 0.1232
324 0 0 1000000000 0 0.2842 0.7158
325 0 0 1000000000 0 0.7739 0.2261
326 0 0 1000000000 0 0.6852 0.3148
327 0 0 1000000000 0 0.1704 0.8296
328 0 0 1000000000 0 0.218 0.782
329 0 0 1000000000 0 0.1927 0.8073
330 0 0 1000000000 0 0.00667 0.9933
331 0 0 1000000000 0 0.6215 0.3785
332 0 0 1000000000 0 0.8598 0.1402
333 0 0 1000000000 0 0.7875 0.2125
334 0 0 1000000000 0 0.7597 0.2403
335 0 0 1000000000 0 0.02837 0.9716
336 0 0 1000000000 0 0.5736 0.4264
337 0 0 1000000000 0 0.5987 0.4013
338 0 0 1000000000 0 0.2421 0.7579
339 0 0 1000000000 0 0.8019 0.1981
340 0 0 1000000000 0 0.4516 0.5484
341 0 0 1000000000 0 0.7844 0.2156
342 0 0 1000000000 0 0.08465 0.9153
343 0 0 1000000000 0 0.8587 0.1413
344 0 0 1000000000 0 0.7497 0.2503
345 0 0 1000000000 0 0.5219 0.4781
346 0 0 1000000000 0 0.3986 0.6014
347 0 0 1000000000 0 0.4792 0.5208
348 0 0 1000000000 0 0.7895 0.2105
349 0 0 1000000000 0 0.8087 0.1913
350 0 0 1000000000 0 0.05147 0.9485
351 0 0 1000000000 0 0.7089 0.2911
352 0 0 1000000000 0 0 1
353 0 0 1000000000 0 0.7955 0.2045
354 0 0 1000000000 0 0.1667 0.8333
355 0 0 1000000000 0 0.1274 0.8726
356 0 0 1000000000 0 0.4914 0.5086
357 0 0 1000000000 0 0.1398 0.8602
358 0 0 1000000000 0 0.6737 0.3263
359 0 0 1000000000 0 0.9854 0.01456
360 0 0 1000000000 0 0.5147 0.4853
361 0 0 1000000000 0 0.5673 0.4327
362 0 0 1000000000 0 0.7647 0.2353
363 0 0 1000000000 0 0.01633 0.9837
364 0 0 1000000000 0 0.2011 0.7989
365 0 0 1000000000 0 0.3117 0.6883
366 0 0 1000000000 0 0.3763 0.6237
367 0 0 1000000000 0 0.01721 0.9828
368 0 0 1000000000 0 0.6872 0.3128
369 0 0 1000000000 0 0.7106 0.2894
370 0 0 1000000000 0 0.1729 0.8271
371 0 0 1000000000 0 0.1988 0.8012
372 0 0 1000000000 0 0.7652 0.2348
373 0 0 1000000000 0 0.2961 0.7039
374 0 0 1000000000 0 0.2362 0.7638
375 0 0 1000000000 0 0.7178 0.2822
376 0 0 1000000000 0 0.751 0.249
